3 3 2
25 2 47 1 71 2 76 0 137 1 76 2 88 1 92 0 186 2 139 0 48 2 180 1 181 0 99 2 111 1 182 0 130 2 134 1 120 2 167 1 85 0 12 2 122 1 84 0 58 2 143 
25 1 79 0 121 1 193 2 67 1 166 0 122 1 117 0 79 2 144 0 16 2 25 1 58 0 139 2 153 0 169 2 108 0 142 2 82 0 114 2 33 1 3 0 26 1 94 2 84 1 12 
25 0 11 2 84 0 130 1 129 0 49 1 57 0 10 2 163 1 121 2 173 0 83 1 181 2 183 1 116 2 57 1 134 0 192 1 33 2 13 0 125 1 99 0 99 1 154 2 55 0 72 

-------------
